
Gurobi 10.0.1 (linux64) logging started Tue Sep 12 17:50:22 2023

Set parameter LogFile to value "./log/esc16g/esc16g.log"
Set parameter TimeLimit to value 180
Gurobi Optimizer version 10.0.1 build v10.0.1rc0 (linux64)

CPU model: 12th Gen Intel(R) Core(TM) i5-12600KF, instruction set [SSE2|AVX|AVX2]
Thread count: 8 physical cores, 16 logical processors, using up to 16 threads

Optimize a model with 32 rows, 256 columns and 512 nonzeros
Model fingerprint: 0x17acd624
Model has 3696 quadratic objective terms
Variable types: 0 continuous, 256 integer (256 binary)
Coefficient statistics:
  Matrix range     [1e+00, 1e+00]
  Objective range  [0e+00, 0e+00]
  QObjective range [4e+00, 4e+01]
  Bounds range     [1e+00, 1e+00]
  RHS range        [1e+00, 1e+00]
Found heuristic solution: objective 70.0000000
Presolve time: 0.03s
Presolved: 112 rows, 336 columns, 4368 nonzeros
Variable types: 0 continuous, 336 integer (256 binary)

Root relaxation: objective 0.000000e+00, 64 iterations, 0.00 seconds (0.00 work units)

    Nodes    |    Current Node    |     Objective Bounds      |     Work
 Expl Unexpl |  Obj  Depth IntInf | Incumbent    BestBd   Gap | It/Node Time

     0     0    0.00000    0   11   70.00000    0.00000   100%     -    0s
H    0     0                      64.0000000    0.00000   100%     -    0s
H    0     0                      56.0000000    0.00000   100%     -    0s
H    0     0                      46.0000000    0.00000   100%     -    0s
     0     0    0.00000    0   34   46.00000    0.00000   100%     -    0s
H    0     0                      42.0000000    0.00000   100%     -    0s
H    0     0                      40.0000000    0.00000   100%     -    0s
H    0     0                      38.0000000    0.00000   100%     -    0s
     0     0    0.00000    0   13   38.00000    0.00000   100%     -    0s
H    0     0                      36.0000000    0.00000   100%     -    0s
     0     0    0.00000    0   11   36.00000    0.00000   100%     -    0s
     0     0    0.00000    0   11   36.00000    0.00000   100%     -    0s
H    0     0                      32.0000000    0.00000   100%     -    0s
     0     0    0.00000    0   15   32.00000    0.00000   100%     -    0s
     0     0    0.00000    0   14   32.00000    0.00000   100%     -    0s
     0     2    0.00000    0   14   32.00000    0.00000   100%     -    0s
*  207   129              23      30.0000000    2.00000  93.3%   7.5    0s
*  336   162              15      28.0000000    2.00000  92.9%   7.4    0s
* 1126   179              19      26.0000000   12.00000  53.8%   7.8    0s

Cutting planes:
  Gomory: 1
  Cover: 2
  Implied bound: 11
  MIR: 16
  Inf proof: 3
  RLT: 1

Explored 1566 nodes (13588 simplex iterations) in 0.23 seconds (0.34 work units)
Thread count was 16 (of 16 available processors)

Solution count 10: 26 28 30 ... 56

Optimal solution found (tolerance 1.00e-04)
Best objective 2.600000000000e+01, best bound 2.600000000000e+01, gap 0.0000%
